NAME : lrc105.1637626.tour
COMMENT : Cost = 0_1637626
COMMENT : Found by LKH [Keld Helsgaun] Fri Sep 15 17:42:02 2017
TYPE : TOUR
DIMENSION : 121
TOUR_SECTION
1
40
37
45
39
41
38
36
105
44
71
118
34
77
19
49
22
26
25
106
121
64
63
68
85
52
86
90
103
110
30
28
27
31
29
33
32
35
51
81
115
91
54
67
57
92
107
113
73
72
82
42
55
97
95
94
111
3
46
6
8
80
56
102
69
120
93
96
65
100
53
87
58
75
116
83
13
15
12
10
11
14
18
112
66
84
20
24
23
21
50
78
117
99
48
17
104
16
88
60
98
76
59
119
70
89
79
109
74
61
114
43
62
9
7
47
5
108
4
2
101
-1
EOF
